************************************************************************
file with basedata            : mm11_.bas
initial value random generator: 305651900
************************************************************************
projects                      :  1
jobs (incl. supersource/sink ):  12
horizon                       :  78
RESOURCES
  - renewable                 :  2   R
  - nonrenewable              :  2   N
  - doubly constrained        :  0   D
************************************************************************
PROJECT INFORMATION:
pronr.  #jobs rel.date duedate tardcost  MPM-Time
    1     10      0       14        3       14
************************************************************************
PRECEDENCE RELATIONS:
jobnr.    #modes  #successors   successors
   0        1          3           1   2   3
   1        3          2           6   9
   2        3          2           4   5
   3        3          1           8
   4        3          3           7   8  10
   5        3          1           6
   6        3          2           8  10
   7        3          1           9
   8        3          1          11
   9        3          1          11
  10        3          1          11
  11        1          0        
************************************************************************
REQUESTS/DURATIONS:
jobnr. mode duration  R 1  R 2  R 3  R 4  E(W 1)  E(W 2)  E(W 3)
------------------------------------------------------------------------
  0      1     0       0    0    0    0     0       0       0
  1      1     2       6    0    0    3    12       0       6
  2      1     1       0    4    0    9     4       0       9
  3      1     3       0    9    6    0    27      18       0
  4      1     4       9    0    4    0    36      16       0
  5      1     1       0    5    9    0     5       9       0
  6      1     3       5    0    6    0    15      18       0
  7      1     1       5    0    0    8     5       0       8
  8      1     3       6    0    5    0    18      15       0
  9      1     8       0    6    2    0    48      16       0
 10      1     3       0    9    0    4    27       0      12
 11      1     0       0    0    0    0     0       0       0
************************************************************************
RESOURCEAVAILABILITIES:
  R 1  R 2  R 3
   28   41   43
************************************************************************
RESOURCE LIMITS:
jobnr.  l(R 1)  u(R 1)  l(R 2)  u(R 2)  l(R 3)  u(R 3)
------------------------------------------------------------------------
  0        0       0       0       0       0       0
  1        3       6       0       0       2       3
  2        2       4       0       0       5       9
  3        5       9       3       6       0       0
  4        5       9       2       4       0       0
  5        3       5       5       9       0       0
  6        3       5       3       6       0       0
  7        3       5       0       0       4       8
  8        3       6       3       5       0       0
  9        3       6       1       2       0       0
 10        5       9       0       0       2       4
 11        0       0       0       0       0       0
************************************************************************
SCENARIOS:
------------------------------------------------------------------------
RESOURCE k = 1
s = 1: (0, 10, 4, 18, 34, 4, 15, 7, 18, 71, 27, 0)
s = 2: (0, 13, 4, 27, 25, 7, 14, 4, 12, 26, 15, 0)
s = 3: (0, 11, 5, 29, 42, 6, 11, 4, 11, 41, 32, 0)
s = 4: (0, 15, 3, 16, 37, 5, 15, 8, 13, 73, 34, 0)
s = 5: (0, 18, 5, 43, 45, 7, 17, 6, 13, 77, 28, 0)
s = 6: (0, 13, 6, 28, 21, 4, 14, 8, 10, 55, 21, 0)
s = 7: (0, 11, 3, 22, 29, 5, 16, 6, 27, 44, 19, 0)
s = 8: (0, 11, 3, 24, 28, 6, 18, 5, 16, 44, 35, 0)
s = 9: (0, 13, 5, 36, 35, 5, 21, 6, 19, 33, 35, 0)
s = 10: (0, 8, 6, 18, 24, 6, 26, 6, 20, 75, 19, 0)
s = 11: (0, 12, 5, 41, 44, 5, 20, 4, 15, 44, 25, 0)
s = 12: (0, 16, 4, 32, 47, 4, 15, 5, 24, 36, 30, 0)
s = 13: (0, 21, 3, 22, 29, 6, 12, 4, 13, 26, 42, 0)
s = 14: (0, 10, 6, 24, 21, 5, 11, 6, 18, 48, 28, 0)
s = 15: (0, 11, 6, 31, 41, 4, 12, 6, 22, 37, 36, 0)
s = 16: (0, 11, 3, 24, 36, 4, 23, 3, 19, 53, 30, 0)
s = 17: (0, 15, 7, 35, 54, 4, 19, 4, 24, 63, 18, 0)
s = 18: (0, 10, 4, 29, 36, 4, 21, 5, 15, 73, 29, 0)
s = 19: (0, 11, 4, 22, 25, 6, 25, 6, 29, 39, 31, 0)
s = 20: (0, 9, 6, 28, 38, 4, 26, 7, 23, 40, 30, 0)
s = 21: (0, 10, 6, 39, 25, 4, 12, 6, 20, 45, 23, 0)
s = 22: (0, 10, 4, 29, 38, 7, 22, 7, 21, 39, 44, 0)
s = 23: (0, 18, 6, 33, 52, 6, 11, 6, 19, 32, 26, 0)
s = 24: (0, 11, 5, 22, 30, 4, 9, 5, 20, 70, 28, 0)
s = 25: (0, 8, 4, 21, 23, 7, 13, 5, 17, 91, 26, 0)
s = 26: (0, 14, 3, 35, 47, 4, 16, 7, 17, 31, 36, 0)
s = 27: (0, 11, 6, 22, 31, 5, 25, 7, 16, 50, 28, 0)
s = 28: (0, 16, 4, 26, 28, 4, 12, 5, 17, 31, 32, 0)
s = 29: (0, 15, 5, 29, 49, 4, 14, 7, 21, 41, 30, 0)
s = 30: (0, 11, 7, 21, 27, 4, 17, 4, 16, 76, 27, 0)
s = 31: (0, 14, 3, 32, 40, 8, 17, 3, 20, 62, 26, 0)
s = 32: (0, 16, 4, 21, 40, 4, 14, 5, 26, 57, 30, 0)
s = 33: (0, 18, 3, 40, 28, 4, 15, 7, 15, 55, 30, 0)
s = 34: (0, 10, 4, 28, 29, 5, 16, 6, 24, 46, 20, 0)
s = 35: (0, 16, 5, 22, 35, 8, 17, 8, 20, 38, 16, 0)
s = 36: (0, 7, 4, 20, 22, 6, 19, 9, 17, 74, 39, 0)
s = 37: (0, 12, 6, 30, 29, 9, 13, 7, 19, 58, 15, 0)
s = 38: (0, 14, 8, 28, 41, 8, 19, 4, 24, 46, 31, 0)
s = 39: (0, 10, 7, 15, 37, 4, 25, 6, 17, 31, 28, 0)
s = 40: (0, 7, 4, 18, 41, 7, 14, 8, 20, 74, 41, 0)
s = 41: (0, 11, 4, 26, 40, 3, 22, 6, 19, 34, 21, 0)
s = 42: (0, 9, 3, 17, 40, 8, 26, 4, 13, 37, 17, 0)
s = 43: (0, 19, 6, 25, 36, 5, 15, 5, 14, 25, 25, 0)
s = 44: (0, 19, 6, 16, 31, 6, 13, 5, 16, 62, 34, 0)
s = 45: (0, 12, 3, 21, 26, 3, 10, 5, 14, 44, 23, 0)
s = 46: (0, 12, 4, 31, 45, 8, 18, 4, 19, 42, 24, 0)
s = 47: (0, 13, 5, 45, 32, 3, 18, 6, 15, 47, 22, 0)
s = 48: (0, 8, 4, 30, 50, 6, 11, 7, 21, 57, 41, 0)
s = 49: (0, 10, 4, 29, 44, 6, 13, 5, 17, 36, 18, 0)
s = 50: (0, 17, 6, 24, 37, 7, 13, 5, 29, 43, 21, 0)
s = 51: (0, 14, 5, 20, 37, 5, 16, 6, 16, 48, 23, 0)
s = 52: (0, 11, 3, 33, 61, 5, 13, 4, 26, 38, 22, 0)
s = 53: (0, 12, 4, 28, 44, 7, 25, 8, 12, 56, 42, 0)
s = 54: (0, 9, 6, 32, 37, 4, 12, 6, 19, 61, 46, 0)
s = 55: (0, 20, 4, 18, 36, 6, 13, 8, 28, 50, 15, 0)
s = 56: (0, 16, 4, 23, 36, 5, 24, 6, 20, 51, 37, 0)
s = 57: (0, 10, 5, 26, 47, 3, 20, 4, 15, 49, 15, 0)
s = 58: (0, 13, 5, 26, 37, 5, 16, 4, 17, 42, 32, 0)
s = 59: (0, 11, 4, 47, 43, 5, 12, 3, 22, 59, 33, 0)
s = 60: (0, 15, 8, 21, 30, 4, 15, 4, 14, 25, 21, 0)
s = 61: (0, 9, 4, 27, 26, 4, 16, 5, 15, 51, 33, 0)
s = 62: (0, 18, 4, 26, 25, 5, 13, 6, 22, 48, 44, 0)
s = 63: (0, 14, 5, 27, 38, 7, 19, 6, 24, 59, 31, 0)
s = 64: (0, 11, 3, 17, 20, 4, 12, 7, 14, 36, 39, 0)
s = 65: (0, 17, 5, 19, 37, 9, 20, 4, 14, 44, 21, 0)
s = 66: (0, 16, 5, 38, 43, 5, 16, 6, 23, 66, 17, 0)
s = 67: (0, 11, 4, 18, 29, 5, 14, 6, 20, 38, 18, 0)
s = 68: (0, 14, 3, 26, 36, 8, 14, 4, 12, 47, 41, 0)
s = 69: (0, 10, 5, 27, 44, 6, 13, 6, 16, 29, 33, 0)
s = 70: (0, 11, 4, 42, 46, 5, 15, 5, 23, 45, 18, 0)
s = 71: (0, 14, 6, 31, 46, 5, 23, 3, 14, 42, 27, 0)
s = 72: (0, 14, 6, 34, 25, 6, 12, 7, 16, 52, 17, 0)
s = 73: (0, 11, 5, 31, 32, 4, 14, 5, 27, 31, 29, 0)
s = 74: (0, 12, 6, 23, 35, 8, 10, 9, 19, 61, 17, 0)
s = 75: (0, 18, 3, 17, 23, 7, 9, 7, 28, 29, 49, 0)
s = 76: (0, 9, 4, 19, 42, 8, 20, 7, 19, 53, 44, 0)
s = 77: (0, 12, 5, 24, 44, 9, 16, 6, 24, 55, 28, 0)
s = 78: (0, 18, 4, 26, 36, 6, 20, 5, 18, 34, 25, 0)
s = 79: (0, 11, 3, 29, 31, 3, 13, 9, 20, 36, 17, 0)
s = 80: (0, 17, 3, 40, 27, 6, 16, 8, 22, 33, 28, 0)
s = 81: (0, 14, 3, 33, 28, 8, 12, 5, 21, 56, 39, 0)
s = 82: (0, 14, 4, 18, 56, 3, 19, 4, 17, 53, 27, 0)
s = 83: (0, 12, 6, 29, 29, 4, 17, 6, 32, 35, 51, 0)
s = 84: (0, 12, 6, 32, 36, 5, 18, 7, 12, 42, 34, 0)
s = 85: (0, 11, 6, 24, 38, 4, 8, 7, 30, 27, 20, 0)
s = 86: (0, 14, 4, 31, 43, 6, 16, 4, 16, 47, 28, 0)
s = 87: (0, 17, 4, 37, 65, 4, 10, 5, 13, 47, 43, 0)
s = 88: (0, 9, 5, 44, 29, 5, 12, 6, 22, 42, 30, 0)
s = 89: (0, 11, 4, 25, 35, 4, 14, 6, 17, 54, 25, 0)
s = 90: (0, 11, 5, 24, 35, 7, 23, 3, 19, 29, 23, 0)
s = 91: (0, 14, 5, 36, 22, 4, 24, 3, 17, 58, 35, 0)
s = 92: (0, 20, 4, 19, 40, 6, 15, 8, 20, 52, 34, 0)
s = 93: (0, 10, 4, 21, 55, 4, 16, 8, 29, 29, 27, 0)
s = 94: (0, 12, 4, 32, 53, 4, 11, 7, 25, 75, 40, 0)
s = 95: (0, 16, 6, 22, 22, 5, 10, 5, 23, 35, 21, 0)
s = 96: (0, 11, 3, 29, 26, 4, 21, 6, 14, 58, 31, 0)
s = 97: (0, 9, 4, 18, 30, 9, 12, 6, 14, 29, 30, 0)
s = 98: (0, 10, 5, 20, 32, 4, 11, 6, 14, 78, 29, 0)
s = 99: (0, 12, 4, 21, 52, 6, 16, 6, 25, 51, 20, 0)
s = 100: (0, 14, 3, 31, 24, 6, 20, 6, 10, 42, 27, 0)
s = 101: (0, 13, 4, 23, 35, 6, 10, 5, 23, 40, 35, 0)
s = 102: (0, 16, 6, 32, 37, 5, 17, 7, 17, 44, 20, 0)
s = 103: (0, 21, 4, 32, 51, 6, 18, 5, 18, 62, 20, 0)
s = 104: (0, 13, 5, 37, 25, 10, 15, 7, 10, 49, 22, 0)
s = 105: (0, 11, 3, 30, 33, 8, 12, 4, 25, 57, 24, 0)
s = 106: (0, 12, 5, 16, 58, 5, 11, 6, 15, 54, 18, 0)
s = 107: (0, 15, 4, 25, 48, 4, 19, 5, 16, 41, 19, 0)
s = 108: (0, 11, 5, 20, 48, 7, 12, 9, 22, 28, 30, 0)
s = 109: (0, 13, 5, 38, 38, 4, 23, 7, 14, 64, 39, 0)
s = 110: (0, 19, 4, 24, 54, 7, 18, 7, 17, 84, 30, 0)
s = 111: (0, 8, 4, 30, 44, 4, 9, 5, 18, 52, 20, 0)
s = 112: (0, 10, 5, 26, 22, 4, 17, 5, 22, 48, 24, 0)
s = 113: (0, 9, 4, 21, 39, 5, 12, 4, 21, 59, 16, 0)
s = 114: (0, 15, 4, 35, 21, 4, 14, 5, 22, 87, 20, 0)
s = 115: (0, 21, 3, 20, 59, 4, 15, 4, 22, 40, 21, 0)
s = 116: (0, 16, 7, 25, 23, 7, 18, 6, 21, 36, 29, 0)
s = 117: (0, 12, 4, 19, 42, 6, 17, 5, 25, 28, 19, 0)
s = 118: (0, 11, 4, 33, 37, 5, 23, 6, 18, 37, 28, 0)
s = 119: (0, 10, 5, 29, 42, 5, 9, 5, 19, 50, 16, 0)
s = 120: (0, 21, 4, 21, 26, 4, 16, 3, 15, 67, 34, 0)
s = 121: (0, 15, 5, 20, 34, 6, 14, 7, 25, 51, 18, 0)
s = 122: (0, 13, 5, 23, 31, 6, 12, 4, 17, 52, 28, 0)
s = 123: (0, 8, 3, 19, 37, 5, 16, 6, 13, 35, 23, 0)
s = 124: (0, 9, 5, 25, 29, 5, 10, 5, 13, 79, 35, 0)
s = 125: (0, 10, 4, 40, 60, 7, 10, 4, 20, 32, 35, 0)
s = 126: (0, 14, 5, 18, 38, 5, 16, 6, 19, 27, 23, 0)
s = 127: (0, 15, 4, 24, 34, 6, 21, 8, 24, 40, 19, 0)
s = 128: (0, 16, 4, 31, 41, 7, 18, 9, 16, 51, 27, 0)
s = 129: (0, 18, 3, 43, 46, 6, 9, 3, 10, 43, 44, 0)
s = 130: (0, 15, 3, 20, 39, 6, 20, 5, 20, 45, 18, 0)
s = 131: (0, 10, 4, 40, 29, 6, 19, 5, 20, 36, 32, 0)
s = 132: (0, 12, 3, 29, 34, 5, 21, 4, 17, 41, 22, 0)
s = 133: (0, 9, 3, 19, 42, 5, 12, 6, 27, 45, 17, 0)
s = 134: (0, 16, 3, 28, 38, 4, 14, 7, 24, 50, 23, 0)
s = 135: (0, 16, 5, 18, 32, 5, 10, 4, 28, 29, 28, 0)
s = 136: (0, 19, 3, 17, 52, 5, 12, 4, 11, 70, 19, 0)
s = 137: (0, 18, 6, 24, 26, 4, 15, 5, 24, 27, 20, 0)
s = 138: (0, 11, 3, 41, 37, 6, 15, 7, 21, 33, 24, 0)
s = 139: (0, 9, 5, 44, 19, 5, 20, 9, 19, 40, 19, 0)
s = 140: (0, 15, 5, 35, 36, 4, 19, 5, 14, 71, 22, 0)
s = 141: (0, 8, 5, 25, 25, 6, 20, 5, 25, 40, 23, 0)
s = 142: (0, 16, 3, 33, 38, 5, 14, 4, 16, 53, 21, 0)
s = 143: (0, 8, 4, 18, 56, 6, 15, 7, 11, 81, 24, 0)
s = 144: (0, 11, 3, 24, 29, 4, 13, 7, 17, 38, 25, 0)
s = 145: (0, 13, 5, 27, 45, 4, 26, 7, 28, 34, 21, 0)
s = 146: (0, 12, 4, 32, 28, 5, 24, 9, 17, 45, 23, 0)
s = 147: (0, 9, 6, 33, 55, 6, 18, 6, 16, 61, 26, 0)
s = 148: (0, 9, 5, 18, 43, 3, 17, 5, 22, 33, 30, 0)
s = 149: (0, 9, 6, 34, 24, 4, 19, 5, 19, 62, 30, 0)
s = 150: (0, 15, 4, 29, 31, 8, 22, 6, 14, 45, 18, 0)
s = 151: (0, 12, 6, 17, 39, 7, 19, 4, 15, 48, 19, 0)
s = 152: (0, 10, 3, 29, 29, 8, 20, 4, 17, 41, 22, 0)
s = 153: (0, 14, 3, 19, 27, 4, 18, 4, 24, 56, 22, 0)
s = 154: (0, 9, 5, 23, 38, 7, 22, 5, 19, 81, 44, 0)
s = 155: (0, 12, 4, 17, 42, 5, 14, 6, 23, 48, 29, 0)
s = 156: (0, 9, 4, 23, 30, 7, 11, 4, 23, 53, 26, 0)
s = 157: (0, 13, 6, 24, 46, 4, 10, 7, 25, 56, 35, 0)
s = 158: (0, 13, 5, 27, 45, 4, 18, 5, 23, 48, 24, 0)
s = 159: (0, 13, 6, 38, 35, 5, 12, 5, 20, 35, 41, 0)
s = 160: (0, 9, 3, 39, 38, 4, 10, 4, 10, 46, 41, 0)
s = 161: (0, 16, 6, 21, 49, 5, 14, 7, 25, 50, 27, 0)
s = 162: (0, 11, 6, 26, 26, 5, 11, 4, 23, 59, 15, 0)
s = 163: (0, 21, 5, 26, 39, 4, 14, 8, 28, 53, 29, 0)
s = 164: (0, 17, 3, 46, 54, 9, 12, 5, 23, 58, 21, 0)
s = 165: (0, 12, 4, 34, 51, 6, 14, 6, 16, 58, 25, 0)
s = 166: (0, 13, 3, 22, 32, 4, 13, 5, 25, 52, 32, 0)
s = 167: (0, 14, 5, 41, 43, 8, 17, 6, 16, 46, 46, 0)
s = 168: (0, 15, 4, 26, 59, 5, 18, 8, 19, 60, 23, 0)
s = 169: (0, 12, 5, 21, 49, 11, 14, 6, 23, 58, 21, 0)
s = 170: (0, 14, 5, 32, 32, 6, 11, 6, 29, 42, 20, 0)
s = 171: (0, 13, 6, 32, 53, 5, 17, 5, 12, 33, 22, 0)
s = 172: (0, 10, 5, 38, 46, 5, 25, 4, 16, 29, 47, 0)
s = 173: (0, 19, 5, 24, 24, 8, 19, 6, 27, 32, 17, 0)
s = 174: (0, 8, 5, 32, 26, 6, 21, 4, 17, 39, 40, 0)
s = 175: (0, 18, 5, 26, 32, 6, 25, 3, 25, 42, 28, 0)
s = 176: (0, 7, 5, 35, 24, 4, 18, 4, 11, 43, 28, 0)
s = 177: (0, 11, 4, 26, 25, 5, 12, 5, 25, 48, 51, 0)
s = 178: (0, 17, 4, 37, 54, 7, 20, 7, 11, 35, 21, 0)
s = 179: (0, 11, 4, 33, 24, 6, 11, 4, 21, 54, 17, 0)
s = 180: (0, 15, 5, 15, 41, 6, 21, 6, 26, 52, 36, 0)
s = 181: (0, 13, 4, 19, 31, 7, 18, 7, 16, 61, 24, 0)
s = 182: (0, 10, 6, 23, 40, 5, 19, 6, 18, 51, 24, 0)
s = 183: (0, 10, 4, 30, 44, 5, 13, 7, 12, 52, 31, 0)
s = 184: (0, 24, 7, 18, 45, 3, 20, 5, 26, 47, 21, 0)
s = 185: (0, 14, 4, 31, 56, 7, 11, 5, 17, 59, 17, 0)
s = 186: (0, 8, 6, 19, 38, 5, 15, 7, 11, 62, 25, 0)
s = 187: (0, 20, 5, 19, 26, 7, 18, 9, 21, 67, 17, 0)
s = 188: (0, 7, 3, 33, 42, 5, 13, 7, 28, 80, 17, 0)
s = 189: (0, 15, 4, 19, 25, 10, 19, 7, 12, 55, 54, 0)
s = 190: (0, 10, 3, 25, 37, 6, 15, 5, 23, 33, 25, 0)
s = 191: (0, 13, 5, 22, 26, 4, 9, 5, 18, 67, 35, 0)
s = 192: (0, 11, 4, 20, 58, 6, 12, 5, 21, 65, 19, 0)
s = 193: (0, 12, 4, 24, 46, 8, 17, 7, 12, 53, 18, 0)
s = 194: (0, 8, 5, 29, 55, 6, 23, 5, 15, 47, 48, 0)
s = 195: (0, 8, 3, 27, 29, 5, 17, 7, 11, 37, 35, 0)
s = 196: (0, 17, 4, 38, 41, 7, 13, 5, 20, 48, 27, 0)
s = 197: (0, 15, 3, 33, 24, 6, 13, 6, 17, 40, 39, 0)
s = 198: (0, 9, 8, 15, 31, 5, 15, 5, 26, 44, 34, 0)
s = 199: (0, 12, 6, 30, 28, 7, 14, 4, 16, 44, 23, 0)
s = 200: (0, 8, 3, 28, 33, 8, 17, 7, 17, 27, 25, 0)
------------------------------------------------------------------------
RESOURCE k = 2
s = 1: (0, 0, 0, 12, 15, 6, 18, 0, 15, 24, 0, 0)
s = 2: (0, 0, 0, 18, 11, 12, 17, 0, 10, 9, 0, 0)
s = 3: (0, 0, 0, 19, 19, 10, 14, 0, 9, 14, 0, 0)
s = 4: (0, 0, 0, 11, 17, 9, 17, 0, 11, 25, 0, 0)
s = 5: (0, 0, 0, 29, 20, 12, 21, 0, 11, 26, 0, 0)
s = 6: (0, 0, 0, 19, 10, 7, 17, 0, 9, 19, 0, 0)
s = 7: (0, 0, 0, 15, 13, 9, 19, 0, 23, 15, 0, 0)
s = 8: (0, 0, 0, 16, 13, 11, 22, 0, 14, 15, 0, 0)
s = 9: (0, 0, 0, 24, 16, 8, 26, 0, 16, 11, 0, 0)
s = 10: (0, 0, 0, 12, 11, 10, 31, 0, 17, 25, 0, 0)
s = 11: (0, 0, 0, 28, 20, 9, 24, 0, 12, 15, 0, 0)
s = 12: (0, 0, 0, 22, 21, 6, 18, 0, 20, 12, 0, 0)
s = 13: (0, 0, 0, 15, 13, 10, 14, 0, 11, 9, 0, 0)
s = 14: (0, 0, 0, 16, 10, 9, 14, 0, 15, 16, 0, 0)
s = 15: (0, 0, 0, 21, 18, 7, 14, 0, 18, 13, 0, 0)
s = 16: (0, 0, 0, 16, 16, 7, 27, 0, 16, 18, 0, 0)
s = 17: (0, 0, 0, 24, 24, 7, 23, 0, 20, 21, 0, 0)
s = 18: (0, 0, 0, 19, 16, 7, 25, 0, 13, 25, 0, 0)
s = 19: (0, 0, 0, 15, 11, 10, 29, 0, 25, 13, 0, 0)
s = 20: (0, 0, 0, 19, 17, 8, 31, 0, 19, 14, 0, 0)
s = 21: (0, 0, 0, 26, 11, 6, 14, 0, 17, 15, 0, 0)
s = 22: (0, 0, 0, 20, 17, 12, 26, 0, 17, 13, 0, 0)
s = 23: (0, 0, 0, 22, 23, 10, 13, 0, 16, 11, 0, 0)
s = 24: (0, 0, 0, 15, 14, 7, 10, 0, 17, 24, 0, 0)
s = 25: (0, 0, 0, 14, 11, 12, 16, 0, 14, 31, 0, 0)
s = 26: (0, 0, 0, 23, 21, 6, 20, 0, 15, 11, 0, 0)
s = 27: (0, 0, 0, 15, 14, 8, 30, 0, 14, 17, 0, 0)
s = 28: (0, 0, 0, 17, 13, 8, 15, 0, 14, 11, 0, 0)
s = 29: (0, 0, 0, 19, 22, 8, 17, 0, 18, 14, 0, 0)
s = 30: (0, 0, 0, 14, 12, 7, 21, 0, 13, 26, 0, 0)
s = 31: (0, 0, 0, 21, 18, 14, 21, 0, 17, 21, 0, 0)
s = 32: (0, 0, 0, 14, 18, 7, 16, 0, 22, 19, 0, 0)
s = 33: (0, 0, 0, 27, 13, 7, 18, 0, 13, 19, 0, 0)
s = 34: (0, 0, 0, 19, 13, 8, 19, 0, 20, 16, 0, 0)
s = 35: (0, 0, 0, 15, 16, 14, 20, 0, 17, 13, 0, 0)
s = 36: (0, 0, 0, 14, 10, 11, 22, 0, 14, 25, 0, 0)
s = 37: (0, 0, 0, 20, 13, 17, 16, 0, 16, 20, 0, 0)
s = 38: (0, 0, 0, 19, 18, 14, 22, 0, 20, 16, 0, 0)
s = 39: (0, 0, 0, 10, 17, 6, 30, 0, 14, 11, 0, 0)
s = 40: (0, 0, 0, 12, 19, 11, 17, 0, 17, 25, 0, 0)
s = 41: (0, 0, 0, 18, 18, 6, 26, 0, 16, 12, 0, 0)
s = 42: (0, 0, 0, 11, 18, 13, 31, 0, 11, 13, 0, 0)
s = 43: (0, 0, 0, 17, 16, 9, 18, 0, 12, 9, 0, 0)
s = 44: (0, 0, 0, 11, 14, 10, 15, 0, 14, 21, 0, 0)
s = 45: (0, 0, 0, 14, 12, 6, 12, 0, 12, 15, 0, 0)
s = 46: (0, 0, 0, 21, 20, 14, 22, 0, 16, 14, 0, 0)
s = 47: (0, 0, 0, 30, 14, 5, 22, 0, 12, 16, 0, 0)
s = 48: (0, 0, 0, 20, 23, 11, 13, 0, 18, 19, 0, 0)
s = 49: (0, 0, 0, 20, 20, 10, 16, 0, 14, 12, 0, 0)
s = 50: (0, 0, 0, 16, 17, 12, 16, 0, 25, 15, 0, 0)
s = 51: (0, 0, 0, 14, 17, 9, 19, 0, 14, 16, 0, 0)
s = 52: (0, 0, 0, 22, 27, 9, 16, 0, 22, 13, 0, 0)
s = 53: (0, 0, 0, 19, 20, 12, 30, 0, 10, 19, 0, 0)
s = 54: (0, 0, 0, 22, 17, 7, 14, 0, 16, 21, 0, 0)
s = 55: (0, 0, 0, 12, 16, 11, 16, 0, 23, 17, 0, 0)
s = 56: (0, 0, 0, 16, 16, 9, 29, 0, 17, 17, 0, 0)
s = 57: (0, 0, 0, 18, 21, 6, 24, 0, 13, 17, 0, 0)
s = 58: (0, 0, 0, 17, 17, 9, 19, 0, 15, 14, 0, 0)
s = 59: (0, 0, 0, 32, 20, 8, 15, 0, 18, 20, 0, 0)
s = 60: (0, 0, 0, 14, 14, 7, 18, 0, 12, 9, 0, 0)
s = 61: (0, 0, 0, 18, 12, 7, 19, 0, 13, 17, 0, 0)
s = 62: (0, 0, 0, 17, 12, 9, 15, 0, 18, 16, 0, 0)
s = 63: (0, 0, 0, 18, 17, 12, 22, 0, 20, 20, 0, 0)
s = 64: (0, 0, 0, 12, 9, 7, 14, 0, 12, 12, 0, 0)
s = 65: (0, 0, 0, 13, 17, 15, 24, 0, 12, 15, 0, 0)
s = 66: (0, 0, 0, 25, 19, 8, 19, 0, 19, 22, 0, 0)
s = 67: (0, 0, 0, 12, 13, 9, 17, 0, 17, 13, 0, 0)
s = 68: (0, 0, 0, 17, 16, 13, 17, 0, 10, 16, 0, 0)
s = 69: (0, 0, 0, 18, 20, 11, 16, 0, 13, 10, 0, 0)
s = 70: (0, 0, 0, 28, 21, 8, 18, 0, 19, 15, 0, 0)
s = 71: (0, 0, 0, 21, 21, 9, 27, 0, 12, 14, 0, 0)
s = 72: (0, 0, 0, 23, 11, 10, 15, 0, 14, 18, 0, 0)
s = 73: (0, 0, 0, 21, 15, 7, 17, 0, 22, 11, 0, 0)
s = 74: (0, 0, 0, 16, 16, 15, 12, 0, 16, 21, 0, 0)
s = 75: (0, 0, 0, 12, 10, 12, 11, 0, 24, 10, 0, 0)
s = 76: (0, 0, 0, 13, 19, 13, 24, 0, 16, 18, 0, 0)
s = 77: (0, 0, 0, 16, 20, 16, 19, 0, 20, 19, 0, 0)
s = 78: (0, 0, 0, 17, 16, 11, 24, 0, 15, 12, 0, 0)
s = 79: (0, 0, 0, 20, 14, 6, 15, 0, 16, 12, 0, 0)
s = 80: (0, 0, 0, 27, 12, 11, 19, 0, 19, 11, 0, 0)
s = 81: (0, 0, 0, 22, 13, 13, 14, 0, 17, 19, 0, 0)
s = 82: (0, 0, 0, 12, 25, 5, 22, 0, 14, 18, 0, 0)
s = 83: (0, 0, 0, 19, 13, 6, 20, 0, 27, 12, 0, 0)
s = 84: (0, 0, 0, 21, 16, 8, 22, 0, 10, 14, 0, 0)
s = 85: (0, 0, 0, 16, 17, 7, 10, 0, 25, 9, 0, 0)
s = 86: (0, 0, 0, 21, 19, 11, 19, 0, 14, 16, 0, 0)
s = 87: (0, 0, 0, 25, 29, 8, 12, 0, 11, 16, 0, 0)
s = 88: (0, 0, 0, 29, 13, 8, 14, 0, 19, 14, 0, 0)
s = 89: (0, 0, 0, 17, 16, 6, 17, 0, 14, 18, 0, 0)
s = 90: (0, 0, 0, 16, 16, 12, 28, 0, 16, 10, 0, 0)
s = 91: (0, 0, 0, 24, 10, 7, 29, 0, 14, 20, 0, 0)
s = 92: (0, 0, 0, 13, 18, 10, 18, 0, 16, 18, 0, 0)
s = 93: (0, 0, 0, 14, 25, 7, 19, 0, 25, 10, 0, 0)
s = 94: (0, 0, 0, 22, 24, 7, 13, 0, 21, 25, 0, 0)
s = 95: (0, 0, 0, 15, 10, 8, 12, 0, 19, 12, 0, 0)
s = 96: (0, 0, 0, 20, 12, 7, 25, 0, 12, 20, 0, 0)
s = 97: (0, 0, 0, 12, 14, 16, 15, 0, 12, 10, 0, 0)
s = 98: (0, 0, 0, 14, 14, 7, 13, 0, 12, 26, 0, 0)
s = 99: (0, 0, 0, 14, 23, 10, 19, 0, 21, 17, 0, 0)
s = 100: (0, 0, 0, 21, 11, 10, 24, 0, 9, 14, 0, 0)
s = 101: (0, 0, 0, 15, 16, 11, 12, 0, 19, 14, 0, 0)
s = 102: (0, 0, 0, 22, 17, 8, 21, 0, 14, 15, 0, 0)
s = 103: (0, 0, 0, 21, 23, 11, 22, 0, 15, 21, 0, 0)
s = 104: (0, 0, 0, 25, 12, 18, 18, 0, 9, 17, 0, 0)
s = 105: (0, 0, 0, 20, 15, 13, 15, 0, 21, 19, 0, 0)
s = 106: (0, 0, 0, 11, 26, 9, 13, 0, 13, 18, 0, 0)
s = 107: (0, 0, 0, 17, 22, 8, 22, 0, 13, 14, 0, 0)
s = 108: (0, 0, 0, 14, 21, 12, 15, 0, 18, 10, 0, 0)
s = 109: (0, 0, 0, 25, 17, 7, 27, 0, 12, 22, 0, 0)
s = 110: (0, 0, 0, 16, 24, 13, 22, 0, 15, 28, 0, 0)
s = 111: (0, 0, 0, 20, 20, 7, 11, 0, 15, 18, 0, 0)
s = 112: (0, 0, 0, 17, 10, 7, 20, 0, 18, 16, 0, 0)
s = 113: (0, 0, 0, 14, 18, 9, 14, 0, 18, 20, 0, 0)
s = 114: (0, 0, 0, 23, 10, 6, 16, 0, 18, 29, 0, 0)
s = 115: (0, 0, 0, 13, 26, 7, 18, 0, 18, 14, 0, 0)
s = 116: (0, 0, 0, 17, 11, 13, 22, 0, 17, 12, 0, 0)
s = 117: (0, 0, 0, 13, 19, 11, 21, 0, 21, 10, 0, 0)
s = 118: (0, 0, 0, 22, 17, 9, 27, 0, 15, 13, 0, 0)
s = 119: (0, 0, 0, 20, 19, 8, 11, 0, 16, 17, 0, 0)
s = 120: (0, 0, 0, 14, 12, 7, 19, 0, 12, 23, 0, 0)
s = 121: (0, 0, 0, 14, 15, 11, 17, 0, 21, 17, 0, 0)
s = 122: (0, 0, 0, 15, 14, 10, 15, 0, 14, 18, 0, 0)
s = 123: (0, 0, 0, 13, 17, 8, 19, 0, 11, 12, 0, 0)
s = 124: (0, 0, 0, 17, 13, 9, 12, 0, 11, 27, 0, 0)
s = 125: (0, 0, 0, 27, 27, 12, 12, 0, 17, 11, 0, 0)
s = 126: (0, 0, 0, 12, 17, 8, 19, 0, 16, 9, 0, 0)
s = 127: (0, 0, 0, 16, 16, 11, 25, 0, 20, 14, 0, 0)
s = 128: (0, 0, 0, 21, 18, 12, 22, 0, 13, 17, 0, 0)
s = 129: (0, 0, 0, 29, 21, 10, 11, 0, 9, 15, 0, 0)
s = 130: (0, 0, 0, 14, 17, 10, 24, 0, 16, 15, 0, 0)
s = 131: (0, 0, 0, 27, 13, 11, 22, 0, 17, 12, 0, 0)
s = 132: (0, 0, 0, 20, 15, 9, 25, 0, 14, 14, 0, 0)
s = 133: (0, 0, 0, 13, 19, 9, 15, 0, 22, 15, 0, 0)
s = 134: (0, 0, 0, 19, 17, 6, 16, 0, 20, 17, 0, 0)
s = 135: (0, 0, 0, 12, 14, 9, 12, 0, 23, 10, 0, 0)
s = 136: (0, 0, 0, 11, 23, 9, 14, 0, 9, 24, 0, 0)
s = 137: (0, 0, 0, 16, 12, 7, 18, 0, 20, 9, 0, 0)
s = 138: (0, 0, 0, 28, 17, 10, 18, 0, 18, 11, 0, 0)
s = 139: (0, 0, 0, 29, 9, 9, 24, 0, 16, 14, 0, 0)
s = 140: (0, 0, 0, 24, 16, 8, 22, 0, 12, 24, 0, 0)
s = 141: (0, 0, 0, 17, 12, 10, 24, 0, 21, 14, 0, 0)
s = 142: (0, 0, 0, 22, 17, 9, 17, 0, 14, 18, 0, 0)
s = 143: (0, 0, 0, 12, 25, 10, 18, 0, 9, 27, 0, 0)
s = 144: (0, 0, 0, 16, 13, 6, 15, 0, 14, 13, 0, 0)
s = 145: (0, 0, 0, 18, 20, 6, 31, 0, 23, 12, 0, 0)
s = 146: (0, 0, 0, 22, 13, 8, 28, 0, 14, 15, 0, 0)
s = 147: (0, 0, 0, 22, 25, 11, 21, 0, 13, 21, 0, 0)
s = 148: (0, 0, 0, 12, 19, 6, 21, 0, 18, 11, 0, 0)
s = 149: (0, 0, 0, 23, 11, 8, 23, 0, 16, 21, 0, 0)
s = 150: (0, 0, 0, 20, 14, 14, 26, 0, 12, 15, 0, 0)
s = 151: (0, 0, 0, 12, 18, 11, 22, 0, 12, 16, 0, 0)
s = 152: (0, 0, 0, 19, 13, 14, 24, 0, 14, 14, 0, 0)
s = 153: (0, 0, 0, 13, 12, 7, 22, 0, 20, 19, 0, 0)
s = 154: (0, 0, 0, 16, 17, 12, 26, 0, 16, 27, 0, 0)
s = 155: (0, 0, 0, 12, 19, 8, 17, 0, 19, 16, 0, 0)
s = 156: (0, 0, 0, 15, 14, 12, 14, 0, 20, 18, 0, 0)
s = 157: (0, 0, 0, 16, 21, 7, 12, 0, 21, 19, 0, 0)
s = 158: (0, 0, 0, 18, 20, 7, 21, 0, 19, 16, 0, 0)
s = 159: (0, 0, 0, 25, 16, 9, 14, 0, 17, 12, 0, 0)
s = 160: (0, 0, 0, 26, 17, 7, 12, 0, 8, 16, 0, 0)
s = 161: (0, 0, 0, 14, 22, 8, 16, 0, 21, 17, 0, 0)
s = 162: (0, 0, 0, 18, 12, 9, 13, 0, 19, 20, 0, 0)
s = 163: (0, 0, 0, 18, 18, 6, 17, 0, 23, 18, 0, 0)
s = 164: (0, 0, 0, 31, 24, 16, 15, 0, 20, 20, 0, 0)
s = 165: (0, 0, 0, 23, 23, 10, 17, 0, 13, 20, 0, 0)
s = 166: (0, 0, 0, 15, 14, 6, 15, 0, 21, 18, 0, 0)
s = 167: (0, 0, 0, 28, 20, 14, 20, 0, 14, 16, 0, 0)
s = 168: (0, 0, 0, 17, 26, 9, 22, 0, 16, 20, 0, 0)
s = 169: (0, 0, 0, 14, 22, 19, 17, 0, 19, 20, 0, 0)
s = 170: (0, 0, 0, 21, 14, 10, 13, 0, 24, 14, 0, 0)
s = 171: (0, 0, 0, 21, 24, 9, 21, 0, 10, 11, 0, 0)
s = 172: (0, 0, 0, 25, 21, 8, 30, 0, 13, 10, 0, 0)
s = 173: (0, 0, 0, 16, 11, 13, 22, 0, 23, 11, 0, 0)
s = 174: (0, 0, 0, 21, 12, 11, 25, 0, 14, 13, 0, 0)
s = 175: (0, 0, 0, 18, 15, 10, 30, 0, 21, 14, 0, 0)
s = 176: (0, 0, 0, 23, 11, 8, 22, 0, 9, 15, 0, 0)
s = 177: (0, 0, 0, 18, 11, 9, 14, 0, 21, 16, 0, 0)
s = 178: (0, 0, 0, 25, 24, 13, 24, 0, 9, 12, 0, 0)
s = 179: (0, 0, 0, 22, 11, 11, 13, 0, 18, 18, 0, 0)
s = 180: (0, 0, 0, 10, 19, 10, 25, 0, 22, 18, 0, 0)
s = 181: (0, 0, 0, 13, 14, 12, 21, 0, 14, 21, 0, 0)
s = 182: (0, 0, 0, 15, 18, 8, 23, 0, 15, 17, 0, 0)
s = 183: (0, 0, 0, 20, 20, 9, 15, 0, 10, 18, 0, 0)
s = 184: (0, 0, 0, 12, 20, 5, 24, 0, 22, 16, 0, 0)
s = 185: (0, 0, 0, 21, 25, 12, 14, 0, 15, 20, 0, 0)
s = 186: (0, 0, 0, 13, 17, 9, 17, 0, 10, 21, 0, 0)
s = 187: (0, 0, 0, 13, 12, 13, 22, 0, 18, 23, 0, 0)
s = 188: (0, 0, 0, 22, 19, 9, 15, 0, 24, 27, 0, 0)
s = 189: (0, 0, 0, 13, 11, 18, 23, 0, 10, 19, 0, 0)
s = 190: (0, 0, 0, 17, 17, 10, 18, 0, 20, 11, 0, 0)
s = 191: (0, 0, 0, 15, 12, 7, 11, 0, 15, 23, 0, 0)
s = 192: (0, 0, 0, 14, 26, 11, 14, 0, 17, 22, 0, 0)
s = 193: (0, 0, 0, 16, 21, 13, 21, 0, 10, 18, 0, 0)
s = 194: (0, 0, 0, 20, 25, 11, 28, 0, 13, 16, 0, 0)
s = 195: (0, 0, 0, 18, 13, 9, 20, 0, 10, 13, 0, 0)
s = 196: (0, 0, 0, 25, 19, 13, 15, 0, 17, 16, 0, 0)
s = 197: (0, 0, 0, 22, 11, 10, 16, 0, 14, 14, 0, 0)
s = 198: (0, 0, 0, 10, 14, 8, 17, 0, 22, 15, 0, 0)
s = 199: (0, 0, 0, 20, 13, 13, 17, 0, 14, 15, 0, 0)
s = 200: (0, 0, 0, 19, 15, 14, 21, 0, 14, 9, 0, 0)
------------------------------------------------------------------------
RESOURCE k = 3
s = 1: (0, 5, 8, 0, 0, 0, 0, 11, 0, 0, 12, 0)
s = 2: (0, 7, 9, 0, 0, 0, 0, 6, 0, 0, 7, 0)
s = 3: (0, 6, 10, 0, 0, 0, 0, 7, 0, 0, 15, 0)
s = 4: (0, 8, 7, 0, 0, 0, 0, 13, 0, 0, 15, 0)
s = 5: (0, 9, 11, 0, 0, 0, 0, 10, 0, 0, 13, 0)
s = 6: (0, 7, 12, 0, 0, 0, 0, 12, 0, 0, 10, 0)
s = 7: (0, 6, 6, 0, 0, 0, 0, 10, 0, 0, 9, 0)
s = 8: (0, 6, 7, 0, 0, 0, 0, 8, 0, 0, 16, 0)
s = 9: (0, 7, 11, 0, 0, 0, 0, 10, 0, 0, 16, 0)
s = 10: (0, 4, 12, 0, 0, 0, 0, 9, 0, 0, 9, 0)
s = 11: (0, 6, 12, 0, 0, 0, 0, 6, 0, 0, 11, 0)
s = 12: (0, 8, 9, 0, 0, 0, 0, 7, 0, 0, 13, 0)
s = 13: (0, 11, 6, 0, 0, 0, 0, 7, 0, 0, 19, 0)
s = 14: (0, 5, 13, 0, 0, 0, 0, 9, 0, 0, 13, 0)
s = 15: (0, 6, 12, 0, 0, 0, 0, 9, 0, 0, 16, 0)
s = 16: (0, 6, 6, 0, 0, 0, 0, 5, 0, 0, 14, 0)
s = 17: (0, 8, 15, 0, 0, 0, 0, 6, 0, 0, 8, 0)
s = 18: (0, 5, 8, 0, 0, 0, 0, 7, 0, 0, 13, 0)
s = 19: (0, 6, 9, 0, 0, 0, 0, 9, 0, 0, 14, 0)
s = 20: (0, 5, 13, 0, 0, 0, 0, 10, 0, 0, 13, 0)
s = 21: (0, 5, 12, 0, 0, 0, 0, 9, 0, 0, 11, 0)
s = 22: (0, 5, 8, 0, 0, 0, 0, 11, 0, 0, 20, 0)
s = 23: (0, 9, 12, 0, 0, 0, 0, 10, 0, 0, 12, 0)
s = 24: (0, 6, 10, 0, 0, 0, 0, 8, 0, 0, 13, 0)
s = 25: (0, 4, 8, 0, 0, 0, 0, 8, 0, 0, 12, 0)
s = 26: (0, 7, 6, 0, 0, 0, 0, 11, 0, 0, 16, 0)
s = 27: (0, 6, 14, 0, 0, 0, 0, 10, 0, 0, 13, 0)
s = 28: (0, 8, 8, 0, 0, 0, 0, 8, 0, 0, 15, 0)
s = 29: (0, 8, 11, 0, 0, 0, 0, 11, 0, 0, 13, 0)
s = 30: (0, 6, 16, 0, 0, 0, 0, 5, 0, 0, 12, 0)
s = 31: (0, 7, 7, 0, 0, 0, 0, 5, 0, 0, 12, 0)
s = 32: (0, 8, 8, 0, 0, 0, 0, 7, 0, 0, 14, 0)
s = 33: (0, 9, 6, 0, 0, 0, 0, 11, 0, 0, 13, 0)
s = 34: (0, 5, 8, 0, 0, 0, 0, 10, 0, 0, 9, 0)
s = 35: (0, 8, 11, 0, 0, 0, 0, 13, 0, 0, 7, 0)
s = 36: (0, 4, 8, 0, 0, 0, 0, 14, 0, 0, 18, 0)
s = 37: (0, 6, 12, 0, 0, 0, 0, 10, 0, 0, 7, 0)
s = 38: (0, 7, 17, 0, 0, 0, 0, 6, 0, 0, 14, 0)
s = 39: (0, 5, 16, 0, 0, 0, 0, 10, 0, 0, 13, 0)
s = 40: (0, 4, 9, 0, 0, 0, 0, 12, 0, 0, 19, 0)
s = 41: (0, 6, 9, 0, 0, 0, 0, 9, 0, 0, 9, 0)
s = 42: (0, 5, 7, 0, 0, 0, 0, 5, 0, 0, 8, 0)
s = 43: (0, 10, 12, 0, 0, 0, 0, 8, 0, 0, 11, 0)
s = 44: (0, 10, 13, 0, 0, 0, 0, 7, 0, 0, 15, 0)
s = 45: (0, 6, 5, 0, 0, 0, 0, 7, 0, 0, 11, 0)
s = 46: (0, 6, 9, 0, 0, 0, 0, 7, 0, 0, 11, 0)
s = 47: (0, 7, 11, 0, 0, 0, 0, 9, 0, 0, 10, 0)
s = 48: (0, 4, 9, 0, 0, 0, 0, 10, 0, 0, 19, 0)
s = 49: (0, 5, 8, 0, 0, 0, 0, 7, 0, 0, 8, 0)
s = 50: (0, 9, 12, 0, 0, 0, 0, 8, 0, 0, 9, 0)
s = 51: (0, 7, 12, 0, 0, 0, 0, 9, 0, 0, 10, 0)
s = 52: (0, 6, 6, 0, 0, 0, 0, 6, 0, 0, 10, 0)
s = 53: (0, 6, 8, 0, 0, 0, 0, 12, 0, 0, 19, 0)
s = 54: (0, 5, 12, 0, 0, 0, 0, 10, 0, 0, 21, 0)
s = 55: (0, 10, 8, 0, 0, 0, 0, 12, 0, 0, 7, 0)
s = 56: (0, 8, 8, 0, 0, 0, 0, 10, 0, 0, 17, 0)
s = 57: (0, 5, 10, 0, 0, 0, 0, 6, 0, 0, 7, 0)
s = 58: (0, 7, 10, 0, 0, 0, 0, 7, 0, 0, 14, 0)
s = 59: (0, 6, 9, 0, 0, 0, 0, 5, 0, 0, 15, 0)
s = 60: (0, 8, 16, 0, 0, 0, 0, 6, 0, 0, 10, 0)
s = 61: (0, 5, 8, 0, 0, 0, 0, 8, 0, 0, 15, 0)
s = 62: (0, 9, 8, 0, 0, 0, 0, 10, 0, 0, 20, 0)
s = 63: (0, 7, 10, 0, 0, 0, 0, 9, 0, 0, 14, 0)
s = 64: (0, 6, 7, 0, 0, 0, 0, 11, 0, 0, 18, 0)
s = 65: (0, 9, 10, 0, 0, 0, 0, 6, 0, 0, 9, 0)
s = 66: (0, 8, 10, 0, 0, 0, 0, 10, 0, 0, 8, 0)
s = 67: (0, 6, 9, 0, 0, 0, 0, 10, 0, 0, 8, 0)
s = 68: (0, 7, 6, 0, 0, 0, 0, 7, 0, 0, 19, 0)
s = 69: (0, 5, 10, 0, 0, 0, 0, 9, 0, 0, 15, 0)
s = 70: (0, 6, 9, 0, 0, 0, 0, 8, 0, 0, 8, 0)
s = 71: (0, 7, 13, 0, 0, 0, 0, 5, 0, 0, 12, 0)
s = 72: (0, 7, 13, 0, 0, 0, 0, 10, 0, 0, 8, 0)
s = 73: (0, 6, 11, 0, 0, 0, 0, 8, 0, 0, 13, 0)
s = 74: (0, 6, 13, 0, 0, 0, 0, 14, 0, 0, 8, 0)
s = 75: (0, 9, 6, 0, 0, 0, 0, 10, 0, 0, 22, 0)
s = 76: (0, 5, 8, 0, 0, 0, 0, 11, 0, 0, 20, 0)
s = 77: (0, 6, 12, 0, 0, 0, 0, 9, 0, 0, 13, 0)
s = 78: (0, 9, 9, 0, 0, 0, 0, 8, 0, 0, 11, 0)
s = 79: (0, 6, 6, 0, 0, 0, 0, 13, 0, 0, 8, 0)
s = 80: (0, 9, 6, 0, 0, 0, 0, 12, 0, 0, 13, 0)
s = 81: (0, 7, 6, 0, 0, 0, 0, 8, 0, 0, 18, 0)
s = 82: (0, 7, 9, 0, 0, 0, 0, 6, 0, 0, 12, 0)
s = 83: (0, 6, 14, 0, 0, 0, 0, 9, 0, 0, 23, 0)
s = 84: (0, 6, 12, 0, 0, 0, 0, 11, 0, 0, 15, 0)
s = 85: (0, 6, 12, 0, 0, 0, 0, 11, 0, 0, 9, 0)
s = 86: (0, 7, 8, 0, 0, 0, 0, 6, 0, 0, 13, 0)
s = 87: (0, 9, 9, 0, 0, 0, 0, 7, 0, 0, 20, 0)
s = 88: (0, 5, 10, 0, 0, 0, 0, 9, 0, 0, 14, 0)
s = 89: (0, 6, 9, 0, 0, 0, 0, 10, 0, 0, 11, 0)
s = 90: (0, 6, 10, 0, 0, 0, 0, 5, 0, 0, 10, 0)
s = 91: (0, 7, 10, 0, 0, 0, 0, 5, 0, 0, 16, 0)
s = 92: (0, 10, 8, 0, 0, 0, 0, 12, 0, 0, 15, 0)
s = 93: (0, 5, 7, 0, 0, 0, 0, 12, 0, 0, 12, 0)
s = 94: (0, 6, 9, 0, 0, 0, 0, 11, 0, 0, 18, 0)
s = 95: (0, 8, 13, 0, 0, 0, 0, 8, 0, 0, 10, 0)
s = 96: (0, 6, 6, 0, 0, 0, 0, 9, 0, 0, 14, 0)
s = 97: (0, 5, 9, 0, 0, 0, 0, 10, 0, 0, 14, 0)
s = 98: (0, 5, 11, 0, 0, 0, 0, 10, 0, 0, 13, 0)
s = 99: (0, 6, 8, 0, 0, 0, 0, 10, 0, 0, 9, 0)
s = 100: (0, 7, 7, 0, 0, 0, 0, 9, 0, 0, 12, 0)
s = 101: (0, 7, 9, 0, 0, 0, 0, 8, 0, 0, 16, 0)
s = 102: (0, 8, 13, 0, 0, 0, 0, 10, 0, 0, 9, 0)
s = 103: (0, 11, 9, 0, 0, 0, 0, 8, 0, 0, 9, 0)
s = 104: (0, 7, 10, 0, 0, 0, 0, 10, 0, 0, 10, 0)
s = 105: (0, 6, 6, 0, 0, 0, 0, 6, 0, 0, 11, 0)
s = 106: (0, 6, 10, 0, 0, 0, 0, 9, 0, 0, 8, 0)
s = 107: (0, 8, 8, 0, 0, 0, 0, 8, 0, 0, 9, 0)
s = 108: (0, 6, 11, 0, 0, 0, 0, 14, 0, 0, 14, 0)
s = 109: (0, 7, 10, 0, 0, 0, 0, 10, 0, 0, 18, 0)
s = 110: (0, 10, 8, 0, 0, 0, 0, 11, 0, 0, 14, 0)
s = 111: (0, 4, 9, 0, 0, 0, 0, 7, 0, 0, 9, 0)
s = 112: (0, 5, 11, 0, 0, 0, 0, 8, 0, 0, 11, 0)
s = 113: (0, 5, 8, 0, 0, 0, 0, 6, 0, 0, 7, 0)
s = 114: (0, 8, 8, 0, 0, 0, 0, 8, 0, 0, 9, 0)
s = 115: (0, 11, 7, 0, 0, 0, 0, 6, 0, 0, 10, 0)
s = 116: (0, 8, 14, 0, 0, 0, 0, 9, 0, 0, 13, 0)
s = 117: (0, 6, 8, 0, 0, 0, 0, 8, 0, 0, 9, 0)
s = 118: (0, 6, 9, 0, 0, 0, 0, 10, 0, 0, 13, 0)
s = 119: (0, 5, 10, 0, 0, 0, 0, 8, 0, 0, 7, 0)
s = 120: (0, 11, 8, 0, 0, 0, 0, 5, 0, 0, 15, 0)
s = 121: (0, 8, 12, 0, 0, 0, 0, 11, 0, 0, 8, 0)
s = 122: (0, 7, 10, 0, 0, 0, 0, 6, 0, 0, 13, 0)
s = 123: (0, 4, 7, 0, 0, 0, 0, 9, 0, 0, 10, 0)
s = 124: (0, 5, 10, 0, 0, 0, 0, 7, 0, 0, 16, 0)
s = 125: (0, 5, 9, 0, 0, 0, 0, 7, 0, 0, 16, 0)
s = 126: (0, 7, 11, 0, 0, 0, 0, 10, 0, 0, 11, 0)
s = 127: (0, 8, 9, 0, 0, 0, 0, 12, 0, 0, 9, 0)
s = 128: (0, 8, 8, 0, 0, 0, 0, 15, 0, 0, 12, 0)
s = 129: (0, 9, 6, 0, 0, 0, 0, 5, 0, 0, 20, 0)
s = 130: (0, 8, 7, 0, 0, 0, 0, 8, 0, 0, 8, 0)
s = 131: (0, 5, 8, 0, 0, 0, 0, 7, 0, 0, 15, 0)
s = 132: (0, 6, 6, 0, 0, 0, 0, 6, 0, 0, 10, 0)
s = 133: (0, 5, 7, 0, 0, 0, 0, 9, 0, 0, 8, 0)
s = 134: (0, 8, 6, 0, 0, 0, 0, 11, 0, 0, 11, 0)
s = 135: (0, 8, 10, 0, 0, 0, 0, 6, 0, 0, 13, 0)
s = 136: (0, 10, 7, 0, 0, 0, 0, 6, 0, 0, 9, 0)
s = 137: (0, 9, 14, 0, 0, 0, 0, 8, 0, 0, 9, 0)
s = 138: (0, 6, 7, 0, 0, 0, 0, 11, 0, 0, 11, 0)
s = 139: (0, 5, 10, 0, 0, 0, 0, 14, 0, 0, 9, 0)
s = 140: (0, 8, 10, 0, 0, 0, 0, 7, 0, 0, 10, 0)
s = 141: (0, 4, 11, 0, 0, 0, 0, 7, 0, 0, 11, 0)
s = 142: (0, 8, 6, 0, 0, 0, 0, 6, 0, 0, 10, 0)
s = 143: (0, 4, 9, 0, 0, 0, 0, 10, 0, 0, 11, 0)
s = 144: (0, 6, 7, 0, 0, 0, 0, 11, 0, 0, 12, 0)
s = 145: (0, 7, 11, 0, 0, 0, 0, 11, 0, 0, 9, 0)
s = 146: (0, 6, 8, 0, 0, 0, 0, 13, 0, 0, 11, 0)
s = 147: (0, 5, 13, 0, 0, 0, 0, 9, 0, 0, 12, 0)
s = 148: (0, 5, 10, 0, 0, 0, 0, 8, 0, 0, 14, 0)
s = 149: (0, 5, 12, 0, 0, 0, 0, 8, 0, 0, 14, 0)
s = 150: (0, 8, 8, 0, 0, 0, 0, 9, 0, 0, 8, 0)
s = 151: (0, 6, 12, 0, 0, 0, 0, 6, 0, 0, 9, 0)
s = 152: (0, 5, 7, 0, 0, 0, 0, 6, 0, 0, 10, 0)
s = 153: (0, 7, 6, 0, 0, 0, 0, 7, 0, 0, 10, 0)
s = 154: (0, 5, 11, 0, 0, 0, 0, 7, 0, 0, 20, 0)
s = 155: (0, 6, 8, 0, 0, 0, 0, 10, 0, 0, 13, 0)
s = 156: (0, 5, 8, 0, 0, 0, 0, 6, 0, 0, 12, 0)
s = 157: (0, 7, 12, 0, 0, 0, 0, 11, 0, 0, 16, 0)
s = 158: (0, 7, 11, 0, 0, 0, 0, 8, 0, 0, 11, 0)
s = 159: (0, 7, 13, 0, 0, 0, 0, 8, 0, 0, 18, 0)
s = 160: (0, 5, 6, 0, 0, 0, 0, 6, 0, 0, 19, 0)
s = 161: (0, 8, 12, 0, 0, 0, 0, 11, 0, 0, 12, 0)
s = 162: (0, 6, 12, 0, 0, 0, 0, 7, 0, 0, 7, 0)
s = 163: (0, 11, 11, 0, 0, 0, 0, 12, 0, 0, 13, 0)
s = 164: (0, 9, 5, 0, 0, 0, 0, 8, 0, 0, 9, 0)
s = 165: (0, 6, 8, 0, 0, 0, 0, 10, 0, 0, 11, 0)
s = 166: (0, 7, 6, 0, 0, 0, 0, 8, 0, 0, 14, 0)
s = 167: (0, 7, 10, 0, 0, 0, 0, 9, 0, 0, 21, 0)
s = 168: (0, 8, 9, 0, 0, 0, 0, 12, 0, 0, 10, 0)
s = 169: (0, 6, 12, 0, 0, 0, 0, 9, 0, 0, 10, 0)
s = 170: (0, 7, 12, 0, 0, 0, 0, 9, 0, 0, 9, 0)
s = 171: (0, 7, 12, 0, 0, 0, 0, 7, 0, 0, 10, 0)
s = 172: (0, 5, 10, 0, 0, 0, 0, 6, 0, 0, 21, 0)
s = 173: (0, 10, 11, 0, 0, 0, 0, 9, 0, 0, 8, 0)
s = 174: (0, 4, 10, 0, 0, 0, 0, 7, 0, 0, 18, 0)
s = 175: (0, 9, 11, 0, 0, 0, 0, 5, 0, 0, 13, 0)
s = 176: (0, 4, 10, 0, 0, 0, 0, 6, 0, 0, 13, 0)
s = 177: (0, 6, 8, 0, 0, 0, 0, 8, 0, 0, 23, 0)
s = 178: (0, 9, 9, 0, 0, 0, 0, 10, 0, 0, 10, 0)
s = 179: (0, 6, 8, 0, 0, 0, 0, 6, 0, 0, 8, 0)
s = 180: (0, 8, 10, 0, 0, 0, 0, 9, 0, 0, 16, 0)
s = 181: (0, 7, 8, 0, 0, 0, 0, 11, 0, 0, 11, 0)
s = 182: (0, 5, 13, 0, 0, 0, 0, 9, 0, 0, 11, 0)
s = 183: (0, 5, 8, 0, 0, 0, 0, 11, 0, 0, 14, 0)
s = 184: (0, 12, 14, 0, 0, 0, 0, 8, 0, 0, 9, 0)
s = 185: (0, 7, 7, 0, 0, 0, 0, 8, 0, 0, 8, 0)
s = 186: (0, 4, 13, 0, 0, 0, 0, 11, 0, 0, 12, 0)
s = 187: (0, 10, 11, 0, 0, 0, 0, 14, 0, 0, 8, 0)
s = 188: (0, 4, 7, 0, 0, 0, 0, 10, 0, 0, 8, 0)
s = 189: (0, 8, 9, 0, 0, 0, 0, 12, 0, 0, 24, 0)
s = 190: (0, 5, 7, 0, 0, 0, 0, 7, 0, 0, 12, 0)
s = 191: (0, 7, 11, 0, 0, 0, 0, 8, 0, 0, 16, 0)
s = 192: (0, 6, 9, 0, 0, 0, 0, 8, 0, 0, 9, 0)
s = 193: (0, 6, 8, 0, 0, 0, 0, 11, 0, 0, 8, 0)
s = 194: (0, 4, 10, 0, 0, 0, 0, 8, 0, 0, 22, 0)
s = 195: (0, 4, 7, 0, 0, 0, 0, 11, 0, 0, 16, 0)
s = 196: (0, 9, 9, 0, 0, 0, 0, 7, 0, 0, 12, 0)
s = 197: (0, 8, 6, 0, 0, 0, 0, 9, 0, 0, 17, 0)
s = 198: (0, 5, 16, 0, 0, 0, 0, 7, 0, 0, 15, 0)
s = 199: (0, 6, 12, 0, 0, 0, 0, 7, 0, 0, 11, 0)
s = 200: (0, 4, 7, 0, 0, 0, 0, 11, 0, 0, 12, 0)
************************************************************************
ES/LS-VALUES:
jobnr.   ES(i)    LS(i)
------------------------------------------------------------------------
  0        0        0
  1        0       58
  2        0       50
  3        0       66
  4        2       52
  5        2       63
  6        4       66
  7        9       60
  8        9       72
  9       10       62
 10        9       72
 11       25       78
************************************************************************
BIG-M-VALUES:
M1 = 68, M2 = 134
************************************************************************
